100 8
74 936
574 611
759 788
894 809
226 116
125 305
545 724
261 402
574 224
129 831
392 213
452 715
644 466
660 790
291 176
935 703
652 753
490 594
833 473
870 704
50 894
678 447
722 810
799 435
913 761
543 633
756 481
657 829
945 544
845 612
801 663
210 297
835 851
735 872
679 675
550 475
513 380
83 887
801 803
349 901
171 445
720 853
582 497
880 888
647 372
115 168
751 799
796 427
628 424
759 518
224 442
888 643
636 327
223 287
395 824
278 259
310 287
502 561
785 559
810 481
806 758
201 246
778 599
799 820
136 823
145 754
717 528
873 686
825 643
918 756
857 745
283 318
486 264
627 799
622 855
216 380
558 716
48 934
737 467
328 871
477 705
927 422
539 362
781 468
198 212
413 308
834 681
533 324
904 840
159 281
834 760
130 803
770 827
784 789
248 395
299 290
750 631
776 887
840 707
677 707
